NAME: tsp40_7
COMMENT: 40-tsp problem (Padberg/Rinaldi)
TYPE: TSP
DIMENSION: 40
EDGE_WEIGHT_TYPE : EUC_2D
NODE_COORD_SECTION
1 31 13
2 10 18
3 29 8
4 27 28
5 40 10
6 23 25
7 10 9
8 34 37
9 36 1
10 36 23
11 37 12
12 25 31
13 31 32
14 7 5
15 8 13
16 13 19
17 30 36
18 16 9
19 17 29
20 3 31
21 31 22
22 14 16
23 29 22
24 6 18
25 8 10
26 20 29
27 5 14
28 31 21
29 17 5
30 34 33
31 30 37
32 37 23
33 37 9
34 4 16
35 14 11
36 12 19
37 11 28
38 13 13
39 31 34
40 27 3
